c This is QMaxSAT 2017 based on 14.07
c This is Glucose 3.0
c This is MiniSat 2.2.0
c WARNING: for repeatability, setting FPU to use double precision
c card = mrwto, comp = 0, pmodel = 0, narr = 4, mct = 42, verb = 0
cr firstCPXsol 0 0 0
c top = 127531
c |  Number of variables:    74296                                            |
c |  Number of clauses:      53708122                                         |
c |  Weight of hard clauses: 127531                                           |
c |  Number of soft clauses: 6888                                             |
c |  Number of unit soft clauses: 6888                                        |
c |  Maximum Cardinality (by unit): 510120       (510120      )               |
c last restart ## conflicts  :  0 1849 
o 487 | cpuTime 4.50644 s
c Sum of weights = 127530
c A number of soft clauses remained = 1722
c MRWTO encoding for Pseudo-Boolean Constraints
c sizeMax=487
c No.0 Divisor=8	generated by pow1
c No.1 Divisor=8	generated by pow1
c No.2 Divisor=8	generated by pow1
c p0= 8	p1= 8	p2= 8	
c number of digits = 4
c linkingVar[0].size = 8, linkingVar[1].size = 8, linkingVar[2].size = 8, linkingVar[3].size = 1, 
c Pseudo-Boolean Constraints: 30126 variables and 206407 clauses
c Sum of weights = 127530
c A number of soft clauses remained = 1722
c MRWTO encoding for Pseudo-Boolean Constraints
c sizeMax=487
c No.0 Divisor=8	generated by pow1
c No.1 Divisor=8	generated by pow1
c No.2 Divisor=8	generated by pow1
c p0= 8	p1= 8	p2= 8	
c number of digits = 4
c linkingVar[0].size = 8, linkingVar[1].size = 8, linkingVar[2].size = 8, linkingVar[3].size = 1, 
c Pseudo-Boolean Constraints: 30126 variables and 206407 clauses
c Sum of weights = 127530
c A number of soft clauses remained = 1722
c MRWTO encoding for Pseudo-Boolean Constraints
c sizeMax=487
c No.0 Divisor=8	generated by pow1
c No.1 Divisor=8	generated by pow1
c No.2 Divisor=8	generated by pow1
c p0= 8	p1= 8	p2= 8	
c number of digits = 4
c linkingVar[0].size = 8, linkingVar[1].size = 8, linkingVar[2].size = 8, linkingVar[3].size = 1, 
c Pseudo-Boolean Constraints: 30126 variables and 206407 clauses
c Sum of weights = 127530
c A number of soft clauses remained = 1722
c MRWTO encoding for Pseudo-Boolean Constraints
c sizeMax=487
c No.0 Divisor=8	generated by pow1
c No.1 Divisor=8	generated by pow1
c No.2 Divisor=8	generated by pow1
c p0= 8	p1= 8	p2= 8	
c number of digits = 4
c linkingVar[0].size = 8, linkingVar[1].size = 8, linkingVar[2].size = 8, linkingVar[3].size = 1, 
c Pseudo-Boolean Constraints: 30126 variables and 206407 clauses
s UNKNOWN
c Search is stopped by a limit (maybe time-limit)
cr positiVarArr: [ | 2@1(1->2) | 45@1(2->3) | 88@1(3->4) | 131@1(4->5) | 174@1(5->6) | 217@1(6->7) | 260@1(7->8) | 303@1(8->9) | 346@1(9->10) | 389@1(10->11) | 421@1(11->1) | 1776@2(1->12) | 2239@2(12->13) | 2282@2(13->14) | 2325@2(14->15) | 2368@2(15->16) | 2411@2(16->17) | 2454@2(17->18) | 2497@2(18->19) | 2540@2(19->20) | 2583@2(20->21) | 2605@2(21->1) | 3550@3(1->22) | 4433@3(22->23) | 4476@3(23->24) | 4519@3(24->25) | 4562@3(25->26) | 4605@3(26->27) | 4648@3(27->28) | 4691@3(28->29) | 4734@3(29->30) | 4777@3(30->31) | 4830@3(31->42) | 5251@3(42->1) | 5324@4(1->32) | 6627@4(32->33) | 6670@4(33->34) | 6713@4(34->35) | 6756@4(35->36) | 6799@4(36->37) | 6842@4(37->38) | 6885@4(38->39) | 6928@4(39->40) | 6971@4(40->41) | 6973@4(41->1) | ]
cr the 1-th chain: [ 1->2->3->4->5->6->7->8->9->10->11->1 ] (#non-depot=10) {#cumul.=11}
cr the 2-th chain: [ 1->12->13->14->15->16->17->18->19->20->21->1 ] (#non-depot=10) {#cumul.=21}
cr the 3-th chain: [ 1->22->23->24->25->26->27->28->29->30->31->42->1 ] (#non-depot=11) {#cumul.=32}
cr the 4-th chain: [ 1->32->33->34->35->36->37->38->39->40->41->1 ] (#non-depot=10) {#cumul.=42}
c Latest Answer = 0 by 1 loops
c restarts              : 21640
c conflicts             : 5770538        (1612 /sec)
c decisions             : 120071342      (0.00 % random) (33547 /sec)
c propagations          : 22594342361    (6312597 /sec)
c conflict literals     : 5211212132     (21.02 % deleted)
c Memory used           : 5349.00 MB
c CPU time              : 3579.25 s
